c ind 100 102 104 106 108 113 118 123 24 25 0
c ind 27 29 31 311 316 321 326 33 331 35 0
c ind 351 355 360 369 37 378 387 39 396 405 0
c ind 41 414 423 43 432 441 45 450 459 468 0
c ind 47 477 49 492 497 5 502 51 522 528 0
c ind 53 536 548 55 560 572 584 596 6 60 0
c ind 608 620 632 644 656 668 680 692 706 711 0
c ind 716 721 726 746 750 755 764 773 78 782 0
c ind 791 80 800 809 818 82 827 836 84 845 0
c ind 854 86 863 872 88 90 92 94 96 98 0
p cnf 882 2663
-1 -2 7 0
-1 2 488 0
-10 11 0
-10 50 0
-101 -102 25 0
-101 -25 102 0
-103 -104 25 0
-103 -25 104 0
-105 -106 25 0
-105 -25 106 0
-107 -108 25 0
-107 -25 108 0
-109 -110 114 0
-109 110 124 0
-11 12 0
-11 48 0
-110 -111 6 0
-110 -6 111 0
-111 -112 -6 0
-111 112 6 0
-112 -113 0
-114 -115 119 0
-114 115 306 0
-115 -116 6 0
-115 -6 116 0
-116 -117 -6 0
-116 117 6 0
-117 -118 0
-119 -120 124 0
-119 120 306 0
-12 13 0
-12 46 0
-120 -121 25 0
-120 -25 121 0
-121 -122 -6 0
-121 122 6 0
-122 -123 0
-124 -125 6 0
-124 125 25 0
-125 126 0
-125 295 0
-126 127 0
-126 284 0
-127 128 0
-127 273 0
-128 129 0
-128 262 0
-129 130 0
-129 251 0
-13 14 0
-13 44 0
-130 131 0
-130 240 0
-131 132 0
-131 229 0
-132 133 0
-132 218 0
-133 134 0
-133 207 0
-134 135 0
-134 196 0
-135 136 0
-135 185 0
-136 137 0
-136 174 0
-137 138 0
-137 163 0
-138 139 0
-138 152 0
-139 140 0
-139 145 0
-14 15 0
-14 42 0
-140 -141 25 0
-140 -25 141 0
-141 -142 -25 0
-141 142 25 0
-142 -24 -143 0
-142 24 143 0
-143 -144 -6 0
-143 144 6 0
-144 -78 0
-145 -146 25 0
-145 -25 146 0
-146 -147 -151 0
-146 147 151 0
-147 -27 -148 0
-147 27 148 0
-148 -149 -150 0
-148 149 150 0
-149 -80 0
-15 16 0
-15 40 0
-150 144 0
-150 6 0
-151 143 0
-151 24 0
-152 -153 25 0
-152 -25 153 0
-153 -154 -158 0
-153 154 158 0
-154 -29 -155 0
-154 29 155 0
-155 -156 -157 0
-155 156 157 0
-156 -82 0
-157 149 0
-157 150 0
-158 159 162 0
-159 160 161 0
-16 17 0
-16 38 0
-160 148 0
-160 27 0
-161 148 0
-161 151 0
-162 151 0
-162 27 0
-163 -164 25 0
-163 -25 164 0
-164 -165 -169 0
-164 165 169 0
-165 -31 -166 0
-165 31 166 0
-166 -167 -168 0
-166 167 168 0
-167 -84 0
-168 156 0
-168 157 0
-169 170 173 0
-17 18 0
-17 36 0
-170 171 172 0
-171 155 0
-171 29 0
-172 155 0
-172 158 0
-173 158 0
-173 29 0
-174 -175 25 0
-174 -25 175 0
-175 -176 -180 0
-175 176 180 0
-176 -33 -177 0
-176 33 177 0
-177 -178 -179 0
-177 178 179 0
-178 -86 0
-179 167 0
-179 168 0
-18 19 0
-18 34 0
-180 181 184 0
-181 182 183 0
-182 166 0
-182 31 0
-183 166 0
-183 169 0
-184 169 0
-184 31 0
-185 -186 25 0
-185 -25 186 0
-186 -187 -191 0
-186 187 191 0
-187 -35 -188 0
-187 35 188 0
-188 -189 -190 0
-188 189 190 0
-189 -88 0
-19 20 0
-19 32 0
-190 178 0
-190 179 0
-191 192 195 0
-192 193 194 0
-193 177 0
-193 33 0
-194 177 0
-194 180 0
-195 180 0
-195 33 0
-196 -197 25 0
-196 -25 197 0
-197 -198 -202 0
-197 198 202 0
-198 -37 -199 0
-198 37 199 0
-199 -200 -201 0
-199 200 201 0
-2 -3 6 0
-2 -6 3 0
-20 21 0
-20 30 0
-200 -90 0
-201 189 0
-201 190 0
-202 203 206 0
-203 204 205 0
-204 188 0
-204 35 0
-205 188 0
-205 191 0
-206 191 0
-206 35 0
-207 -208 25 0
-207 -25 208 0
-208 -209 -213 0
-208 209 213 0
-209 -39 -210 0
-209 39 210 0
-21 22 0
-21 28 0
-210 -211 -212 0
-210 211 212 0
-211 -92 0
-212 200 0
-212 201 0
-213 214 217 0
-214 215 216 0
-215 199 0
-215 37 0
-216 199 0
-216 202 0
-217 202 0
-217 37 0
-218 -219 25 0
-218 -25 219 0
-219 -220 -224 0
-219 220 224 0
-22 23 0
-22 26 0
-220 -41 -221 0
-220 41 221 0
-221 -222 -223 0
-221 222 223 0
-222 -94 0
-223 211 0
-223 212 0
-224 225 228 0
-225 226 227 0
-226 210 0
-226 39 0
-227 210 0
-227 213 0
-228 213 0
-228 39 0
-229 -230 25 0
-229 -25 230 0
-23 -24 25 0
-23 -25 24 0
-230 -231 -235 0
-230 231 235 0
-231 -43 -232 0
-231 43 232 0
-232 -233 -234 0
-232 233 234 0
-233 -96 0
-234 222 0
-234 223 0
-235 236 239 0
-236 237 238 0
-237 221 0
-237 41 0
-238 221 0
-238 224 0
-239 224 0
-239 41 0
-240 -241 25 0
-240 -25 241 0
-241 -242 -246 0
-241 242 246 0
-242 -45 -243 0
-242 45 243 0
-243 -244 -245 0
-243 244 245 0
-244 -98 0
-245 233 0
-245 234 0
-246 247 250 0
-247 248 249 0
-248 232 0
-248 43 0
-249 232 0
-249 235 0
-25 0
-250 235 0
-250 43 0
-251 -25 252 0
-251 -252 25 0
-252 -253 -257 0
-252 253 257 0
-253 -47 -254 0
-253 47 254 0
-254 -255 -256 0
-254 255 256 0
-255 -100 0
-256 244 0
-256 245 0
-257 258 261 0
-258 259 260 0
-259 243 0
-259 45 0
-26 -25 27 0
-26 -27 25 0
-260 243 0
-260 246 0
-261 246 0
-261 45 0
-262 -25 263 0
-262 -263 25 0
-263 -264 -268 0
-263 264 268 0
-264 -49 -265 0
-264 49 265 0
-265 -266 -267 0
-265 266 267 0
-266 -102 0
-267 255 0
-267 256 0
-268 269 272 0
-269 270 271 0
-270 254 0
-270 47 0
-271 254 0
-271 257 0
-272 257 0
-272 47 0
-273 -25 274 0
-273 -274 25 0
-274 -275 -279 0
-274 275 279 0
-275 -51 -276 0
-275 51 276 0
-276 -277 -278 0
-276 277 278 0
-277 -104 0
-278 266 0
-278 267 0
-279 280 283 0
-28 -25 29 0
-28 -29 25 0
-280 281 282 0
-281 265 0
-281 49 0
-282 265 0
-282 268 0
-283 268 0
-283 49 0
-284 -25 285 0
-284 -285 25 0
-285 -286 -290 0
-285 286 290 0
-286 -53 -287 0
-286 53 287 0
-287 -288 -289 0
-287 288 289 0
-288 -106 0
-289 277 0
-289 278 0
-290 291 294 0
-291 292 293 0
-292 276 0
-292 51 0
-293 276 0
-293 279 0
-294 279 0
-294 51 0
-295 -25 296 0
-295 -296 25 0
-296 -297 -301 0
-296 297 301 0
-297 -55 -298 0
-297 55 298 0
-298 -299 -300 0
-298 299 300 0
-299 -108 0
-3 -4 -6 0
-3 4 6 0
-30 -25 31 0
-30 -31 25 0
-300 288 0
-300 289 0
-301 302 305 0
-302 303 304 0
-303 287 0
-303 53 0
-304 287 0
-304 290 0
-305 290 0
-305 53 0
-306 -125 307 0
-306 125 483 0
-307 -308 312 0
-307 308 317 0
-308 -309 6 0
-308 -6 309 0
-309 -310 -6 0
-309 310 6 0
-310 -311 0
-312 -313 6 0
-312 313 317 0
-313 -25 314 0
-313 -314 25 0
-314 -315 -6 0
-314 315 6 0
-315 -316 0
-317 -318 6 0
-317 318 322 0
-318 -319 6 0
-318 -6 319 0
-319 -320 -6 0
-319 320 6 0
-32 -33 6 0
-32 -6 33 0
-320 -321 0
-322 -323 6 0
-322 323 327 0
-323 -324 6 0
-323 -6 324 0
-324 -325 -6 0
-324 325 6 0
-325 -326 0
-327 -328 332 0
-327 328 6 0
-328 -329 6 0
-328 -6 329 0
-329 -330 -6 0
-329 330 6 0
-330 -331 0
-332 -333 6 0
-332 333 25 0
-333 334 0
-333 474 0
-334 335 0
-334 465 0
-335 336 0
-335 456 0
-336 337 0
-336 447 0
-337 338 0
-337 438 0
-338 339 0
-338 429 0
-339 340 0
-339 420 0
-34 -25 35 0
-34 -35 25 0
-340 341 0
-340 411 0
-341 342 0
-341 402 0
-342 343 0
-342 393 0
-343 344 0
-343 384 0
-344 345 0
-344 375 0
-345 346 0
-345 366 0
-346 347 0
-346 357 0
-347 348 0
-347 352 0
-348 -25 349 0
-348 -349 25 0
-349 -350 -25 0
-349 350 25 0
-350 -351 -143 0
-350 351 143 0
-352 -25 353 0
-352 -353 25 0
-353 -354 -356 0
-353 354 356 0
-354 -355 -148 0
-354 355 148 0
-356 143 0
-356 351 0
-357 -25 358 0
-357 -358 25 0
-358 -359 -361 0
-358 359 361 0
-359 -360 -155 0
-359 360 155 0
-36 -25 37 0
-36 -37 25 0
-361 362 365 0
-362 363 364 0
-363 148 0
-363 355 0
-364 148 0
-364 356 0
-365 355 0
-365 356 0
-366 -25 367 0
-366 -367 25 0
-367 -368 -370 0
-367 368 370 0
-368 -369 -166 0
-368 369 166 0
-370 371 374 0
-371 372 373 0
-372 155 0
-372 360 0
-373 155 0
-373 361 0
-374 360 0
-374 361 0
-375 -25 376 0
-375 -376 25 0
-376 -377 -379 0
-376 377 379 0
-377 -378 -177 0
-377 378 177 0
-379 380 383 0
-38 -25 39 0
-38 -39 25 0
-380 381 382 0
-381 166 0
-381 369 0
-382 166 0
-382 370 0
-383 369 0
-383 370 0
-384 -25 385 0
-384 -385 25 0
-385 -386 -388 0
-385 386 388 0
-386 -387 -188 0
-386 387 188 0
-388 389 392 0
-389 390 391 0
-390 177 0
-390 378 0
-391 177 0
-391 379 0
-392 378 0
-392 379 0
-393 -25 394 0
-393 -394 25 0
-394 -395 -397 0
-394 395 397 0
-395 -396 -199 0
-395 396 199 0
-397 398 401 0
-398 399 400 0
-399 188 0
-399 387 0
-4 -5 0
-40 -25 41 0
-40 -41 25 0
-400 188 0
-400 388 0
-401 387 0
-401 388 0
-402 -25 403 0
-402 -403 25 0
-403 -404 -406 0
-403 404 406 0
-404 -405 -210 0
-404 405 210 0
-406 407 410 0
-407 408 409 0
-408 199 0
-408 396 0
-409 199 0
-409 397 0
-410 396 0
-410 397 0
-411 -25 412 0
-411 -412 25 0
-412 -413 -415 0
-412 413 415 0
-413 -414 -221 0
-413 414 221 0
-415 416 419 0
-416 417 418 0
-417 210 0
-417 405 0
-418 210 0
-418 406 0
-419 405 0
-419 406 0
-42 -25 43 0
-42 -43 25 0
-420 -25 421 0
-420 -421 25 0
-421 -422 -424 0
-421 422 424 0
-422 -423 -232 0
-422 423 232 0
-424 425 428 0
-425 426 427 0
-426 221 0
-426 414 0
-427 221 0
-427 415 0
-428 414 0
-428 415 0
-429 -25 430 0
-429 -430 25 0
-430 -431 -433 0
-430 431 433 0
-431 -432 -243 0
-431 432 243 0
-433 434 437 0
-434 435 436 0
-435 232 0
-435 423 0
-436 232 0
-436 424 0
-437 423 0
-437 424 0
-438 -25 439 0
-438 -439 25 0
-439 -440 -442 0
-439 440 442 0
-44 -25 45 0
-44 -45 25 0
-440 -441 -254 0
-440 441 254 0
-442 443 446 0
-443 444 445 0
-444 243 0
-444 432 0
-445 243 0
-445 433 0
-446 432 0
-446 433 0
-447 -25 448 0
-447 -448 25 0
-448 -449 -451 0
-448 449 451 0
-449 -450 -265 0
-449 450 265 0
-451 452 455 0
-452 453 454 0
-453 254 0
-453 441 0
-454 254 0
-454 442 0
-455 441 0
-455 442 0
-456 -25 457 0
-456 -457 25 0
-457 -458 -460 0
-457 458 460 0
-458 -459 -276 0
-458 459 276 0
-46 -25 47 0
-46 -47 25 0
-460 461 464 0
-461 462 463 0
-462 265 0
-462 450 0
-463 265 0
-463 451 0
-464 450 0
-464 451 0
-465 -25 466 0
-465 -466 25 0
-466 -467 -469 0
-466 467 469 0
-467 -468 -287 0
-467 468 287 0
-469 470 473 0
-470 471 472 0
-471 276 0
-471 459 0
-472 276 0
-472 460 0
-473 459 0
-473 460 0
-474 -25 475 0
-474 -475 25 0
-475 -476 -478 0
-475 476 478 0
-476 -477 -298 0
-476 477 298 0
-478 479 482 0
-479 480 481 0
-48 -25 49 0
-48 -49 25 0
-480 287 0
-480 468 0
-481 287 0
-481 469 0
-482 468 0
-482 469 0
-483 -308 484 0
-483 308 485 0
-484 -313 25 0
-484 313 485 0
-485 -318 25 0
-485 318 486 0
-486 -323 25 0
-486 323 487 0
-487 -328 332 0
-487 328 25 0
-488 -489 493 0
-488 489 503 0
-489 -490 6 0
-489 -6 490 0
-490 -491 -6 0
-490 491 6 0
-491 -492 0
-493 -494 498 0
-493 494 701 0
-494 -495 6 0
-494 -6 495 0
-495 -496 -6 0
-495 496 6 0
-496 -497 0
-498 -499 503 0
-498 499 701 0
-499 -25 500 0
-499 -500 25 0
-50 -25 51 0
-50 -51 25 0
-500 -501 -6 0
-500 501 6 0
-501 -502 0
-503 -504 56 0
-503 504 25 0
-504 505 0
-504 689 0
-505 506 0
-505 677 0
-506 507 0
-506 665 0
-507 508 0
-507 653 0
-508 509 0
-508 641 0
-509 510 0
-509 629 0
-510 511 0
-510 617 0
-511 512 0
-511 605 0
-512 513 0
-512 593 0
-513 514 0
-513 581 0
-514 515 0
-514 569 0
-515 516 0
-515 557 0
-516 517 0
-516 545 0
-517 518 0
-517 533 0
-518 519 0
-518 525 0
-519 -25 520 0
-519 -520 25 0
-52 -25 53 0
-52 -53 25 0
-520 -521 -25 0
-520 521 25 0
-521 -522 -523 0
-521 522 523 0
-523 -524 -6 0
-523 524 6 0
-524 -24 0
-525 -25 526 0
-525 -526 25 0
-526 -527 -532 0
-526 527 532 0
-527 -528 -529 0
-527 528 529 0
-529 -530 -531 0
-529 530 531 0
-530 -27 0
-531 524 0
-531 6 0
-532 522 0
-532 523 0
-533 -25 534 0
-533 -534 25 0
-534 -535 -540 0
-534 535 540 0
-535 -536 -537 0
-535 536 537 0
-537 -538 -539 0
-537 538 539 0
-538 -29 0
-539 530 0
-539 531 0
-54 -25 55 0
-54 -55 25 0
-540 541 544 0
-541 542 543 0
-542 528 0
-542 529 0
-543 529 0
-543 532 0
-544 528 0
-544 532 0
-545 -25 546 0
-545 -546 25 0
-546 -547 -552 0
-546 547 552 0
-547 -548 -549 0
-547 548 549 0
-549 -550 -551 0
-549 550 551 0
-550 -31 0
-551 538 0
-551 539 0
-552 553 556 0
-553 554 555 0
-554 536 0
-554 537 0
-555 537 0
-555 540 0
-556 536 0
-556 540 0
-557 -25 558 0
-557 -558 25 0
-558 -559 -564 0
-558 559 564 0
-559 -560 -561 0
-559 560 561 0
-56 -57 61 0
-56 57 109 0
-561 -562 -563 0
-561 562 563 0
-562 -33 0
-563 550 0
-563 551 0
-564 565 568 0
-565 566 567 0
-566 548 0
-566 549 0
-567 549 0
-567 552 0
-568 548 0
-568 552 0
-569 -25 570 0
-569 -570 25 0
-57 -58 6 0
-57 -6 58 0
-570 -571 -576 0
-570 571 576 0
-571 -572 -573 0
-571 572 573 0
-573 -574 -575 0
-573 574 575 0
-574 -35 0
-575 562 0
-575 563 0
-576 577 580 0
-577 578 579 0
-578 560 0
-578 561 0
-579 561 0
-579 564 0
-58 -59 -6 0
-58 59 6 0
-580 560 0
-580 564 0
-581 -25 582 0
-581 -582 25 0
-582 -583 -588 0
-582 583 588 0
-583 -584 -585 0
-583 584 585 0
-585 -586 -587 0
-585 586 587 0
-586 -37 0
-587 574 0
-587 575 0
-588 589 592 0
-589 590 591 0
-59 -60 0
-590 572 0
-590 573 0
-591 573 0
-591 576 0
-592 572 0
-592 576 0
-593 -25 594 0
-593 -594 25 0
-594 -595 -600 0
-594 595 600 0
-595 -596 -597 0
-595 596 597 0
-597 -598 -599 0
-597 598 599 0
-598 -39 0
-599 586 0
-599 587 0
-600 601 604 0
-601 602 603 0
-602 584 0
-602 585 0
-603 585 0
-603 588 0
-604 584 0
-604 588 0
-605 -25 606 0
-605 -606 25 0
-606 -607 -612 0
-606 607 612 0
-607 -608 -609 0
-607 608 609 0
-609 -610 -611 0
-609 610 611 0
-61 -62 6 0
-61 62 25 0
-610 -41 0
-611 598 0
-611 599 0
-612 613 616 0
-613 614 615 0
-614 596 0
-614 597 0
-615 597 0
-615 600 0
-616 596 0
-616 600 0
-617 -25 618 0
-617 -618 25 0
-618 -619 -624 0
-618 619 624 0
-619 -620 -621 0
-619 620 621 0
-62 107 0
-62 63 0
-621 -622 -623 0
-621 622 623 0
-622 -43 0
-623 610 0
-623 611 0
-624 625 628 0
-625 626 627 0
-626 608 0
-626 609 0
-627 609 0
-627 612 0
-628 608 0
-628 612 0
-629 -25 630 0
-629 -630 25 0
-63 105 0
-63 64 0
-630 -631 -636 0
-630 631 636 0
-631 -632 -633 0
-631 632 633 0
-633 -634 -635 0
-633 634 635 0
-634 -45 0
-635 622 0
-635 623 0
-636 637 640 0
-637 638 639 0
-638 620 0
-638 621 0
-639 621 0
-639 624 0
-64 103 0
-64 65 0
-640 620 0
-640 624 0
-641 -25 642 0
-641 -642 25 0
-642 -643 -648 0
-642 643 648 0
-643 -644 -645 0
-643 644 645 0
-645 -646 -647 0
-645 646 647 0
-646 -47 0
-647 634 0
-647 635 0
-648 649 652 0
-649 650 651 0
-65 101 0
-65 66 0
-650 632 0
-650 633 0
-651 633 0
-651 636 0
-652 632 0
-652 636 0
-653 -25 654 0
-653 -654 25 0
-654 -655 -660 0
-654 655 660 0
-655 -656 -657 0
-655 656 657 0
-657 -658 -659 0
-657 658 659 0
-658 -49 0
-659 646 0
-659 647 0
-66 67 0
-66 99 0
-660 661 664 0
-661 662 663 0
-662 644 0
-662 645 0
-663 645 0
-663 648 0
-664 644 0
-664 648 0
-665 -25 666 0
-665 -666 25 0
-666 -667 -672 0
-666 667 672 0
-667 -668 -669 0
-667 668 669 0
-669 -670 -671 0
-669 670 671 0
-67 68 0
-67 97 0
-670 -51 0
-671 658 0
-671 659 0
-672 673 676 0
-673 674 675 0
-674 656 0
-674 657 0
-675 657 0
-675 660 0
-676 656 0
-676 660 0
-677 -25 678 0
-677 -678 25 0
-678 -679 -684 0
-678 679 684 0
-679 -680 -681 0
-679 680 681 0
-68 69 0
-68 95 0
-681 -682 -683 0
-681 682 683 0
-682 -53 0
-683 670 0
-683 671 0
-684 685 688 0
-685 686 687 0
-686 668 0
-686 669 0
-687 669 0
-687 672 0
-688 668 0
-688 672 0
-689 -25 690 0
-689 -690 25 0
-69 70 0
-69 93 0
-690 -691 -696 0
-690 691 696 0
-691 -692 -693 0
-691 692 693 0
-693 -694 -695 0
-693 694 695 0
-694 -55 0
-695 682 0
-695 683 0
-696 697 700 0
-697 698 699 0
-698 680 0
-698 681 0
-699 681 0
-699 684 0
-7 -8 56 0
-7 8 25 0
-70 71 0
-70 91 0
-700 680 0
-700 684 0
-701 -504 702 0
-701 504 878 0
-702 -703 707 0
-702 703 712 0
-703 -6 704 0
-703 -704 6 0
-704 -705 -6 0
-704 705 6 0
-705 -706 0
-707 -708 56 0
-707 708 712 0
-708 -25 709 0
-708 -709 25 0
-709 -710 -6 0
-709 710 6 0
-71 72 0
-71 89 0
-710 -711 0
-712 -713 56 0
-712 713 717 0
-713 -6 714 0
-713 -714 6 0
-714 -715 -6 0
-714 715 6 0
-715 -716 0
-717 -718 56 0
-717 718 722 0
-718 -6 719 0
-718 -719 6 0
-719 -720 -6 0
-719 720 6 0
-72 73 0
-72 87 0
-720 -721 0
-722 -723 727 0
-722 723 56 0
-723 -6 724 0
-723 -724 6 0
-724 -725 -6 0
-724 725 6 0
-725 -726 0
-727 -728 56 0
-727 728 25 0
-728 729 0
-728 869 0
-729 730 0
-729 860 0
-73 74 0
-73 85 0
-730 731 0
-730 851 0
-731 732 0
-731 842 0
-732 733 0
-732 833 0
-733 734 0
-733 824 0
-734 735 0
-734 815 0
-735 736 0
-735 806 0
-736 737 0
-736 797 0
-737 738 0
-737 788 0
-738 739 0
-738 779 0
-739 740 0
-739 770 0
-74 75 0
-74 83 0
-740 741 0
-740 761 0
-741 742 0
-741 752 0
-742 743 0
-742 747 0
-743 -25 744 0
-743 -744 25 0
-744 -745 -25 0
-744 745 25 0
-745 -746 -523 0
-745 746 523 0
-747 -25 748 0
-747 -748 25 0
-748 -749 -751 0
-748 749 751 0
-749 -750 -529 0
-749 750 529 0
-75 76 0
-75 81 0
-751 523 0
-751 746 0
-752 -25 753 0
-752 -753 25 0
-753 -754 -756 0
-753 754 756 0
-754 -755 -537 0
-754 755 537 0
-756 757 760 0
-757 758 759 0
-758 529 0
-758 750 0
-759 529 0
-759 751 0
-76 77 0
-76 79 0
-760 750 0
-760 751 0
-761 -25 762 0
-761 -762 25 0
-762 -763 -765 0
-762 763 765 0
-763 -764 -549 0
-763 764 549 0
-765 766 769 0
-766 767 768 0
-767 537 0
-767 755 0
-768 537 0
-768 756 0
-769 755 0
-769 756 0
-77 -25 78 0
-77 -78 25 0
-770 -25 771 0
-770 -771 25 0
-771 -772 -774 0
-771 772 774 0
-772 -773 -561 0
-772 773 561 0
-774 775 778 0
-775 776 777 0
-776 549 0
-776 764 0
-777 549 0
-777 765 0
-778 764 0
-778 765 0
-779 -25 780 0
-779 -780 25 0
-780 -781 -783 0
-780 781 783 0
-781 -782 -573 0
-781 782 573 0
-783 784 787 0
-784 785 786 0
-785 561 0
-785 773 0
-786 561 0
-786 774 0
-787 773 0
-787 774 0
-788 -25 789 0
-788 -789 25 0
-789 -790 -792 0
-789 790 792 0
-79 -25 80 0
-79 -80 25 0
-790 -791 -585 0
-790 791 585 0
-792 793 796 0
-793 794 795 0
-794 573 0
-794 782 0
-795 573 0
-795 783 0
-796 782 0
-796 783 0
-797 -25 798 0
-797 -798 25 0
-798 -799 -801 0
-798 799 801 0
-799 -800 -597 0
-799 800 597 0
-8 54 0
-8 9 0
-801 802 805 0
-802 803 804 0
-803 585 0
-803 791 0
-804 585 0
-804 792 0
-805 791 0
-805 792 0
-806 -25 807 0
-806 -807 25 0
-807 -808 -810 0
-807 808 810 0
-808 -809 -609 0
-808 809 609 0
-81 -25 82 0
-81 -82 25 0
-810 811 814 0
-811 812 813 0
-812 597 0
-812 800 0
-813 597 0
-813 801 0
-814 800 0
-814 801 0
-815 -25 816 0
-815 -816 25 0
-816 -817 -819 0
-816 817 819 0
-817 -818 -621 0
-817 818 621 0
-819 820 823 0
-820 821 822 0
-821 609 0
-821 809 0
-822 609 0
-822 810 0
-823 809 0
-823 810 0
-824 -25 825 0
-824 -825 25 0
-825 -826 -828 0
-825 826 828 0
-826 -827 -633 0
-826 827 633 0
-828 829 832 0
-829 830 831 0
-83 -25 84 0
-83 -84 25 0
-830 621 0
-830 818 0
-831 621 0
-831 819 0
-832 818 0
-832 819 0
-833 -25 834 0
-833 -834 25 0
-834 -835 -837 0
-834 835 837 0
-835 -836 -645 0
-835 836 645 0
-837 838 841 0
-838 839 840 0
-839 633 0
-839 827 0
-840 633 0
-840 828 0
-841 827 0
-841 828 0
-842 -25 843 0
-842 -843 25 0
-843 -844 -846 0
-843 844 846 0
-844 -845 -657 0
-844 845 657 0
-846 847 850 0
-847 848 849 0
-848 645 0
-848 836 0
-849 645 0
-849 837 0
-85 -6 86 0
-85 -86 6 0
-850 836 0
-850 837 0
-851 -25 852 0
-851 -852 25 0
-852 -853 -855 0
-852 853 855 0
-853 -854 -669 0
-853 854 669 0
-855 856 859 0
-856 857 858 0
-857 657 0
-857 845 0
-858 657 0
-858 846 0
-859 845 0
-859 846 0
-860 -25 861 0
-860 -861 25 0
-861 -862 -864 0
-861 862 864 0
-862 -863 -681 0
-862 863 681 0
-864 865 868 0
-865 866 867 0
-866 669 0
-866 854 0
-867 669 0
-867 855 0
-868 854 0
-868 855 0
-869 -25 870 0
-869 -870 25 0
-87 -25 88 0
-87 -88 25 0
-870 -871 -873 0
-870 871 873 0
-871 -872 -693 0
-871 872 693 0
-873 874 877 0
-874 875 876 0
-875 681 0
-875 863 0
-876 681 0
-876 864 0
-877 863 0
-877 864 0
-878 -703 879 0
-878 703 880 0
-879 -708 25 0
-879 708 880 0
-880 -713 25 0
-880 713 881 0
-881 -718 25 0
-881 718 882 0
-882 -723 727 0
-882 723 25 0
-89 -25 90 0
-89 -90 25 0
-9 10 0
-9 52 0
-91 -25 92 0
-91 -92 25 0
-93 -25 94 0
-93 -94 25 0
-95 -25 96 0
-95 -96 25 0
-97 -25 98 0
-97 -98 25 0
-99 -100 25 0
-99 -25 100 0
1 -2 -7 0
1 -7 -488 0
1 0
1 2 -488 0
10 -11 -50 0
101 -102 -25 0
101 102 25 0
103 -104 -25 0
103 104 25 0
105 -106 -25 0
105 106 25 0
107 -108 -25 0
107 108 25 0
109 -110 -114 0
109 -114 -124 0
109 110 -124 0
11 -12 -48 0
110 -111 -6 0
110 111 6 0
111 -112 6 0
111 -6 112 0
112 113 0
114 -115 -119 0
114 -119 -306 0
114 115 -306 0
115 -116 -6 0
115 116 6 0
116 -117 6 0
116 -6 117 0
117 118 0
119 -120 -124 0
119 -124 -306 0
119 120 -306 0
12 -13 -46 0
120 -121 -25 0
120 121 25 0
121 -122 6 0
121 -6 122 0
122 123 0
124 -125 -6 0
124 -6 -25 0
124 125 -25 0
125 -126 -295 0
126 -127 -284 0
127 -128 -273 0
128 -129 -262 0
129 -130 -251 0
13 -14 -44 0
130 -131 -240 0
131 -132 -229 0
132 -133 -218 0
133 -134 -207 0
134 -135 -196 0
135 -136 -185 0
136 -137 -174 0
137 -138 -163 0
138 -139 -152 0
139 -140 -145 0
14 -15 -42 0
140 -141 -25 0
140 141 25 0
141 -142 25 0
141 -25 142 0
142 -143 24 0
142 -24 143 0
143 -144 6 0
143 -6 144 0
144 78 0
145 -146 -25 0
145 146 25 0
146 -147 151 0
146 -151 147 0
147 -148 27 0
147 -27 148 0
148 -149 150 0
148 -150 149 0
149 80 0
15 -16 -40 0
150 -144 -6 0
151 -24 -143 0
152 -153 -25 0
152 153 25 0
153 -154 158 0
153 -158 154 0
154 -155 29 0
154 -29 155 0
155 -156 157 0
155 -157 156 0
156 82 0
157 -149 -150 0
158 -159 0
158 -162 0
159 -160 0
159 -161 0
16 -17 -38 0
160 -27 -148 0
161 -148 -151 0
162 -27 -151 0
163 -164 -25 0
163 164 25 0
164 -165 169 0
164 -169 165 0
165 -166 31 0
165 -31 166 0
166 -167 168 0
166 -168 167 0
167 84 0
168 -156 -157 0
169 -170 0
169 -173 0
17 -18 -36 0
170 -171 0
170 -172 0
171 -29 -155 0
172 -155 -158 0
173 -29 -158 0
174 -175 -25 0
174 175 25 0
175 -176 180 0
175 -180 176 0
176 -177 33 0
176 -33 177 0
177 -178 179 0
177 -179 178 0
178 86 0
179 -167 -168 0
18 -19 -34 0
180 -181 0
180 -184 0
181 -182 0
181 -183 0
182 -31 -166 0
183 -166 -169 0
184 -31 -169 0
185 -186 -25 0
185 186 25 0
186 -187 191 0
186 -191 187 0
187 -188 35 0
187 -35 188 0
188 -189 190 0
188 -190 189 0
189 88 0
19 -20 -32 0
190 -178 -179 0
191 -192 0
191 -195 0
192 -193 0
192 -194 0
193 -33 -177 0
194 -177 -180 0
195 -33 -180 0
196 -197 -25 0
196 197 25 0
197 -198 202 0
197 -202 198 0
198 -199 37 0
198 -37 199 0
199 -200 201 0
199 -201 200 0
2 -3 -6 0
2 3 6 0
20 -21 -30 0
200 90 0
201 -189 -190 0
202 -203 0
202 -206 0
203 -204 0
203 -205 0
204 -35 -188 0
205 -188 -191 0
206 -35 -191 0
207 -208 -25 0
207 208 25 0
208 -209 213 0
208 -213 209 0
209 -210 39 0
209 -39 210 0
21 -22 -28 0
210 -211 212 0
210 -212 211 0
211 92 0
212 -200 -201 0
213 -214 0
213 -217 0
214 -215 0
214 -216 0
215 -37 -199 0
216 -199 -202 0
217 -37 -202 0
218 -219 -25 0
218 219 25 0
219 -220 224 0
219 -224 220 0
22 -23 -26 0
220 -221 41 0
220 -41 221 0
221 -222 223 0
221 -223 222 0
222 94 0
223 -211 -212 0
224 -225 0
224 -228 0
225 -226 0
225 -227 0
226 -39 -210 0
227 -210 -213 0
228 -39 -213 0
229 -230 -25 0
229 230 25 0
23 -24 -25 0
23 24 25 0
230 -231 235 0
230 -235 231 0
231 -232 43 0
231 -43 232 0
232 -233 234 0
232 -234 233 0
233 96 0
234 -222 -223 0
235 -236 0
235 -239 0
236 -237 0
236 -238 0
237 -41 -221 0
238 -221 -224 0
239 -41 -224 0
240 -241 -25 0
240 241 25 0
241 -242 246 0
241 -246 242 0
242 -243 45 0
242 -45 243 0
243 -244 245 0
243 -245 244 0
244 98 0
245 -233 -234 0
246 -247 0
246 -250 0
247 -248 0
247 -249 0
248 -43 -232 0
249 -232 -235 0
250 -43 -235 0
251 -252 -25 0
251 252 25 0
252 -253 257 0
252 -257 253 0
253 -254 47 0
253 -47 254 0
254 -255 256 0
254 -256 255 0
255 100 0
256 -244 -245 0
257 -258 0
257 -261 0
258 -259 0
258 -260 0
259 -45 -243 0
26 -27 -25 0
26 27 25 0
260 -243 -246 0
261 -45 -246 0
262 -263 -25 0
262 263 25 0
263 -264 268 0
263 -268 264 0
264 -265 49 0
264 -49 265 0
265 -266 267 0
265 -267 266 0
266 102 0
267 -255 -256 0
268 -269 0
268 -272 0
269 -270 0
269 -271 0
270 -47 -254 0
271 -254 -257 0
272 -47 -257 0
273 -274 -25 0
273 274 25 0
274 -275 279 0
274 -279 275 0
275 -276 51 0
275 -51 276 0
276 -277 278 0
276 -278 277 0
277 104 0
278 -266 -267 0
279 -280 0
279 -283 0
28 -29 -25 0
28 29 25 0
280 -281 0
280 -282 0
281 -49 -265 0
282 -265 -268 0
283 -49 -268 0
284 -285 -25 0
284 285 25 0
285 -286 290 0
285 -290 286 0
286 -287 53 0
286 -53 287 0
287 -288 289 0
287 -289 288 0
288 106 0
289 -277 -278 0
290 -291 0
290 -294 0
291 -292 0
291 -293 0
292 -51 -276 0
293 -276 -279 0
294 -51 -279 0
295 -296 -25 0
295 296 25 0
296 -297 301 0
296 -301 297 0
297 -298 55 0
297 -55 298 0
298 -299 300 0
298 -300 299 0
299 108 0
3 -4 6 0
3 -6 4 0
30 -31 -25 0
30 31 25 0
300 -288 -289 0
301 -302 0
301 -305 0
302 -303 0
302 -304 0
303 -53 -287 0
304 -287 -290 0
305 -53 -290 0
306 -125 -307 0
306 -307 -483 0
306 125 -483 0
307 -308 -312 0
307 -312 -317 0
307 308 -317 0
308 -309 -6 0
308 309 6 0
309 -310 6 0
309 -6 310 0
310 311 0
312 -313 -6 0
312 -6 -317 0
312 313 -317 0
313 -314 -25 0
313 314 25 0
314 -315 6 0
314 -6 315 0
315 316 0
317 -318 -6 0
317 -6 -322 0
317 318 -322 0
318 -319 -6 0
318 319 6 0
319 -320 6 0
319 -6 320 0
32 -33 -6 0
32 33 6 0
320 321 0
322 -323 -6 0
322 -6 -327 0
322 323 -327 0
323 -324 -6 0
323 324 6 0
324 -325 6 0
324 -6 325 0
325 326 0
327 -328 -332 0
327 -332 -6 0
327 328 -6 0
328 -329 -6 0
328 329 6 0
329 -330 6 0
329 -6 330 0
330 331 0
332 -333 -6 0
332 -6 -25 0
332 333 -25 0
333 -334 -474 0
334 -335 -465 0
335 -336 -456 0
336 -337 -447 0
337 -338 -438 0
338 -339 -429 0
339 -340 -420 0
34 -35 -25 0
34 35 25 0
340 -341 -411 0
341 -342 -402 0
342 -343 -393 0
343 -344 -384 0
344 -345 -375 0
345 -346 -366 0
346 -347 -357 0
347 -348 -352 0
348 -349 -25 0
348 349 25 0
349 -25 350 0
349 -350 25 0
350 -143 351 0
350 -351 143 0
352 -353 -25 0
352 353 25 0
353 -354 356 0
353 -356 354 0
354 -148 355 0
354 -355 148 0
356 -351 -143 0
357 -358 -25 0
357 358 25 0
358 -359 361 0
358 -361 359 0
359 -155 360 0
359 -360 155 0
36 -37 -25 0
36 37 25 0
361 -362 0
361 -365 0
362 -363 0
362 -364 0
363 -355 -148 0
364 -148 -356 0
365 -355 -356 0
366 -367 -25 0
366 367 25 0
367 -368 370 0
367 -370 368 0
368 -166 369 0
368 -369 166 0
370 -371 0
370 -374 0
371 -372 0
371 -373 0
372 -360 -155 0
373 -155 -361 0
374 -360 -361 0
375 -376 -25 0
375 376 25 0
376 -377 379 0
376 -379 377 0
377 -177 378 0
377 -378 177 0
379 -380 0
379 -383 0
38 -39 -25 0
38 39 25 0
380 -381 0
380 -382 0
381 -369 -166 0
382 -166 -370 0
383 -369 -370 0
384 -385 -25 0
384 385 25 0
385 -386 388 0
385 -388 386 0
386 -188 387 0
386 -387 188 0
388 -389 0
388 -392 0
389 -390 0
389 -391 0
390 -378 -177 0
391 -177 -379 0
392 -378 -379 0
393 -394 -25 0
393 394 25 0
394 -395 397 0
394 -397 395 0
395 -199 396 0
395 -396 199 0
397 -398 0
397 -401 0
398 -399 0
398 -400 0
399 -387 -188 0
4 5 0
40 -41 -25 0
40 41 25 0
400 -188 -388 0
401 -387 -388 0
402 -403 -25 0
402 403 25 0
403 -404 406 0
403 -406 404 0
404 -210 405 0
404 -405 210 0
406 -407 0
406 -410 0
407 -408 0
407 -409 0
408 -396 -199 0
409 -199 -397 0
410 -396 -397 0
411 -412 -25 0
411 412 25 0
412 -413 415 0
412 -415 413 0
413 -221 414 0
413 -414 221 0
415 -416 0
415 -419 0
416 -417 0
416 -418 0
417 -405 -210 0
418 -210 -406 0
419 -405 -406 0
42 -43 -25 0
42 43 25 0
420 -421 -25 0
420 421 25 0
421 -422 424 0
421 -424 422 0
422 -232 423 0
422 -423 232 0
424 -425 0
424 -428 0
425 -426 0
425 -427 0
426 -414 -221 0
427 -221 -415 0
428 -414 -415 0
429 -430 -25 0
429 430 25 0
430 -431 433 0
430 -433 431 0
431 -243 432 0
431 -432 243 0
433 -434 0
433 -437 0
434 -435 0
434 -436 0
435 -423 -232 0
436 -232 -424 0
437 -423 -424 0
438 -439 -25 0
438 439 25 0
439 -440 442 0
439 -442 440 0
44 -45 -25 0
44 45 25 0
440 -254 441 0
440 -441 254 0
442 -443 0
442 -446 0
443 -444 0
443 -445 0
444 -432 -243 0
445 -243 -433 0
446 -432 -433 0
447 -448 -25 0
447 448 25 0
448 -449 451 0
448 -451 449 0
449 -265 450 0
449 -450 265 0
451 -452 0
451 -455 0
452 -453 0
452 -454 0
453 -441 -254 0
454 -254 -442 0
455 -441 -442 0
456 -457 -25 0
456 457 25 0
457 -458 460 0
457 -460 458 0
458 -276 459 0
458 -459 276 0
46 -47 -25 0
46 47 25 0
460 -461 0
460 -464 0
461 -462 0
461 -463 0
462 -450 -265 0
463 -265 -451 0
464 -450 -451 0
465 -466 -25 0
465 466 25 0
466 -467 469 0
466 -469 467 0
467 -287 468 0
467 -468 287 0
469 -470 0
469 -473 0
470 -471 0
470 -472 0
471 -459 -276 0
472 -276 -460 0
473 -459 -460 0
474 -475 -25 0
474 475 25 0
475 -476 478 0
475 -478 476 0
476 -298 477 0
476 -477 298 0
478 -479 0
478 -482 0
479 -480 0
479 -481 0
48 -49 -25 0
48 49 25 0
480 -468 -287 0
481 -287 -469 0
482 -468 -469 0
483 -308 -484 0
483 -484 -485 0
483 308 -485 0
484 -25 -485 0
484 -313 -25 0
484 313 -485 0
485 -25 -486 0
485 -318 -25 0
485 318 -486 0
486 -25 -487 0
486 -323 -25 0
486 323 -487 0
487 -328 -332 0
487 -332 -25 0
487 328 -25 0
488 -489 -493 0
488 -493 -503 0
488 489 -503 0
489 -490 -6 0
489 490 6 0
490 -491 6 0
490 -6 491 0
491 492 0
493 -494 -498 0
493 -498 -701 0
493 494 -701 0
494 -495 -6 0
494 495 6 0
495 -496 6 0
495 -6 496 0
496 497 0
498 -499 -503 0
498 -503 -701 0
498 499 -701 0
499 -500 -25 0
499 500 25 0
50 -51 -25 0
50 51 25 0
500 -501 6 0
500 -6 501 0
501 502 0
503 -504 -56 0
503 -56 -25 0
503 504 -25 0
504 -505 -689 0
505 -506 -677 0
506 -507 -665 0
507 -508 -653 0
508 -509 -641 0
509 -510 -629 0
510 -511 -617 0
511 -512 -605 0
512 -513 -593 0
513 -514 -581 0
514 -515 -569 0
515 -516 -557 0
516 -517 -545 0
517 -518 -533 0
518 -519 -525 0
519 -520 -25 0
519 520 25 0
52 -53 -25 0
52 53 25 0
520 -25 521 0
520 -521 25 0
521 -522 523 0
521 -523 522 0
523 -524 6 0
523 -6 524 0
524 24 0
525 -526 -25 0
525 526 25 0
526 -527 532 0
526 -532 527 0
527 -528 529 0
527 -529 528 0
529 -530 531 0
529 -531 530 0
530 27 0
531 -524 -6 0
532 -522 -523 0
533 -534 -25 0
533 534 25 0
534 -535 540 0
534 -540 535 0
535 -536 537 0
535 -537 536 0
537 -538 539 0
537 -539 538 0
538 29 0
539 -530 -531 0
54 -55 -25 0
54 55 25 0
540 -541 0
540 -544 0
541 -542 0
541 -543 0
542 -528 -529 0
543 -529 -532 0
544 -528 -532 0
545 -546 -25 0
545 546 25 0
546 -547 552 0
546 -552 547 0
547 -548 549 0
547 -549 548 0
549 -550 551 0
549 -551 550 0
550 31 0
551 -538 -539 0
552 -553 0
552 -556 0
553 -554 0
553 -555 0
554 -536 -537 0
555 -537 -540 0
556 -536 -540 0
557 -558 -25 0
557 558 25 0
558 -559 564 0
558 -564 559 0
559 -560 561 0
559 -561 560 0
56 -57 -61 0
56 -61 -109 0
56 57 -109 0
561 -562 563 0
561 -563 562 0
562 33 0
563 -550 -551 0
564 -565 0
564 -568 0
565 -566 0
565 -567 0
566 -548 -549 0
567 -549 -552 0
568 -548 -552 0
569 -570 -25 0
569 570 25 0
57 -58 -6 0
57 58 6 0
570 -571 576 0
570 -576 571 0
571 -572 573 0
571 -573 572 0
573 -574 575 0
573 -575 574 0
574 35 0
575 -562 -563 0
576 -577 0
576 -580 0
577 -578 0
577 -579 0
578 -560 -561 0
579 -561 -564 0
58 -59 6 0
58 -6 59 0
580 -560 -564 0
581 -582 -25 0
581 582 25 0
582 -583 588 0
582 -588 583 0
583 -584 585 0
583 -585 584 0
585 -586 587 0
585 -587 586 0
586 37 0
587 -574 -575 0
588 -589 0
588 -592 0
589 -590 0
589 -591 0
59 60 0
590 -572 -573 0
591 -573 -576 0
592 -572 -576 0
593 -594 -25 0
593 594 25 0
594 -595 600 0
594 -600 595 0
595 -596 597 0
595 -597 596 0
597 -598 599 0
597 -599 598 0
598 39 0
599 -586 -587 0
6 0
600 -601 0
600 -604 0
601 -602 0
601 -603 0
602 -584 -585 0
603 -585 -588 0
604 -584 -588 0
605 -606 -25 0
605 606 25 0
606 -607 612 0
606 -612 607 0
607 -608 609 0
607 -609 608 0
609 -610 611 0
609 -611 610 0
61 -6 -25 0
61 -62 -6 0
61 62 -25 0
610 41 0
611 -598 -599 0
612 -613 0
612 -616 0
613 -614 0
613 -615 0
614 -596 -597 0
615 -597 -600 0
616 -596 -600 0
617 -618 -25 0
617 618 25 0
618 -619 624 0
618 -624 619 0
619 -620 621 0
619 -621 620 0
62 -63 -107 0
621 -622 623 0
621 -623 622 0
622 43 0
623 -610 -611 0
624 -625 0
624 -628 0
625 -626 0
625 -627 0
626 -608 -609 0
627 -609 -612 0
628 -608 -612 0
629 -630 -25 0
629 630 25 0
63 -64 -105 0
630 -631 636 0
630 -636 631 0
631 -632 633 0
631 -633 632 0
633 -634 635 0
633 -635 634 0
634 45 0
635 -622 -623 0
636 -637 0
636 -640 0
637 -638 0
637 -639 0
638 -620 -621 0
639 -621 -624 0
64 -65 -103 0
640 -620 -624 0
641 -642 -25 0
641 642 25 0
642 -643 648 0
642 -648 643 0
643 -644 645 0
643 -645 644 0
645 -646 647 0
645 -647 646 0
646 47 0
647 -634 -635 0
648 -649 0
648 -652 0
649 -650 0
649 -651 0
65 -66 -101 0
650 -632 -633 0
651 -633 -636 0
652 -632 -636 0
653 -654 -25 0
653 654 25 0
654 -655 660 0
654 -660 655 0
655 -656 657 0
655 -657 656 0
657 -658 659 0
657 -659 658 0
658 49 0
659 -646 -647 0
66 -67 -99 0
660 -661 0
660 -664 0
661 -662 0
661 -663 0
662 -644 -645 0
663 -645 -648 0
664 -644 -648 0
665 -666 -25 0
665 666 25 0
666 -667 672 0
666 -672 667 0
667 -668 669 0
667 -669 668 0
669 -670 671 0
669 -671 670 0
67 -68 -97 0
670 51 0
671 -658 -659 0
672 -673 0
672 -676 0
673 -674 0
673 -675 0
674 -656 -657 0
675 -657 -660 0
676 -656 -660 0
677 -678 -25 0
677 678 25 0
678 -679 684 0
678 -684 679 0
679 -680 681 0
679 -681 680 0
68 -69 -95 0
681 -682 683 0
681 -683 682 0
682 53 0
683 -670 -671 0
684 -685 0
684 -688 0
685 -686 0
685 -687 0
686 -668 -669 0
687 -669 -672 0
688 -668 -672 0
689 -690 -25 0
689 690 25 0
69 -70 -93 0
690 -691 696 0
690 -696 691 0
691 -692 693 0
691 -693 692 0
693 -694 695 0
693 -695 694 0
694 55 0
695 -682 -683 0
696 -697 0
696 -700 0
697 -698 0
697 -699 0
698 -680 -681 0
699 -681 -684 0
7 -56 -25 0
7 -8 -56 0
7 8 -25 0
70 -71 -91 0
700 -680 -684 0
701 -504 -702 0
701 -702 -878 0
701 504 -878 0
702 -703 -707 0
702 -707 -712 0
702 703 -712 0
703 -704 -6 0
703 704 6 0
704 -6 705 0
704 -705 6 0
705 706 0
707 -56 -712 0
707 -708 -56 0
707 708 -712 0
708 -709 -25 0
708 709 25 0
709 -6 710 0
709 -710 6 0
71 -72 -89 0
710 711 0
712 -56 -717 0
712 -713 -56 0
712 713 -717 0
713 -714 -6 0
713 714 6 0
714 -6 715 0
714 -715 6 0
715 716 0
717 -56 -722 0
717 -718 -56 0
717 718 -722 0
718 -719 -6 0
718 719 6 0
719 -6 720 0
719 -720 6 0
72 -73 -87 0
720 721 0
722 -723 -727 0
722 -727 -56 0
722 723 -56 0
723 -724 -6 0
723 724 6 0
724 -6 725 0
724 -725 6 0
725 726 0
727 -56 -25 0
727 -728 -56 0
727 728 -25 0
728 -729 -869 0
729 -730 -860 0
73 -74 -85 0
730 -731 -851 0
731 -732 -842 0
732 -733 -833 0
733 -734 -824 0
734 -735 -815 0
735 -736 -806 0
736 -737 -797 0
737 -738 -788 0
738 -739 -779 0
739 -740 -770 0
74 -75 -83 0
740 -741 -761 0
741 -742 -752 0
742 -743 -747 0
743 -744 -25 0
743 744 25 0
744 -25 745 0
744 -745 25 0
745 -523 746 0
745 -746 523 0
747 -748 -25 0
747 748 25 0
748 -749 751 0
748 -751 749 0
749 -529 750 0
749 -750 529 0
75 -76 -81 0
751 -746 -523 0
752 -753 -25 0
752 753 25 0
753 -754 756 0
753 -756 754 0
754 -537 755 0
754 -755 537 0
756 -757 0
756 -760 0
757 -758 0
757 -759 0
758 -750 -529 0
759 -529 -751 0
76 -77 -79 0
760 -750 -751 0
761 -762 -25 0
761 762 25 0
762 -763 765 0
762 -765 763 0
763 -549 764 0
763 -764 549 0
765 -766 0
765 -769 0
766 -767 0
766 -768 0
767 -755 -537 0
768 -537 -756 0
769 -755 -756 0
77 -78 -25 0
77 78 25 0
770 -771 -25 0
770 771 25 0
771 -772 774 0
771 -774 772 0
772 -561 773 0
772 -773 561 0
774 -775 0
774 -778 0
775 -776 0
775 -777 0
776 -764 -549 0
777 -549 -765 0
778 -764 -765 0
779 -780 -25 0
779 780 25 0
780 -781 783 0
780 -783 781 0
781 -573 782 0
781 -782 573 0
783 -784 0
783 -787 0
784 -785 0
784 -786 0
785 -773 -561 0
786 -561 -774 0
787 -773 -774 0
788 -789 -25 0
788 789 25 0
789 -790 792 0
789 -792 790 0
79 -80 -25 0
79 80 25 0
790 -585 791 0
790 -791 585 0
792 -793 0
792 -796 0
793 -794 0
793 -795 0
794 -782 -573 0
795 -573 -783 0
796 -782 -783 0
797 -798 -25 0
797 798 25 0
798 -799 801 0
798 -801 799 0
799 -597 800 0
799 -800 597 0
8 -9 -54 0
801 -802 0
801 -805 0
802 -803 0
802 -804 0
803 -791 -585 0
804 -585 -792 0
805 -791 -792 0
806 -807 -25 0
806 807 25 0
807 -808 810 0
807 -810 808 0
808 -609 809 0
808 -809 609 0
81 -82 -25 0
81 82 25 0
810 -811 0
810 -814 0
811 -812 0
811 -813 0
812 -800 -597 0
813 -597 -801 0
814 -800 -801 0
815 -816 -25 0
815 816 25 0
816 -817 819 0
816 -819 817 0
817 -621 818 0
817 -818 621 0
819 -820 0
819 -823 0
820 -821 0
820 -822 0
821 -809 -609 0
822 -609 -810 0
823 -809 -810 0
824 -825 -25 0
824 825 25 0
825 -826 828 0
825 -828 826 0
826 -633 827 0
826 -827 633 0
828 -829 0
828 -832 0
829 -830 0
829 -831 0
83 -84 -25 0
83 84 25 0
830 -818 -621 0
831 -621 -819 0
832 -818 -819 0
833 -834 -25 0
833 834 25 0
834 -835 837 0
834 -837 835 0
835 -645 836 0
835 -836 645 0
837 -838 0
837 -841 0
838 -839 0
838 -840 0
839 -827 -633 0
840 -633 -828 0
841 -827 -828 0
842 -843 -25 0
842 843 25 0
843 -844 846 0
843 -846 844 0
844 -657 845 0
844 -845 657 0
846 -847 0
846 -850 0
847 -848 0
847 -849 0
848 -836 -645 0
849 -645 -837 0
85 -86 -6 0
85 86 6 0
850 -836 -837 0
851 -852 -25 0
851 852 25 0
852 -853 855 0
852 -855 853 0
853 -669 854 0
853 -854 669 0
855 -856 0
855 -859 0
856 -857 0
856 -858 0
857 -845 -657 0
858 -657 -846 0
859 -845 -846 0
860 -861 -25 0
860 861 25 0
861 -862 864 0
861 -864 862 0
862 -681 863 0
862 -863 681 0
864 -865 0
864 -868 0
865 -866 0
865 -867 0
866 -854 -669 0
867 -669 -855 0
868 -854 -855 0
869 -870 -25 0
869 870 25 0
87 -88 -25 0
87 88 25 0
870 -871 873 0
870 -873 871 0
871 -693 872 0
871 -872 693 0
873 -874 0
873 -877 0
874 -875 0
874 -876 0
875 -863 -681 0
876 -681 -864 0
877 -863 -864 0
878 -703 -879 0
878 -879 -880 0
878 703 -880 0
879 -25 -880 0
879 -708 -25 0
879 708 -880 0
880 -25 -881 0
880 -713 -25 0
880 713 -881 0
881 -25 -882 0
881 -718 -25 0
881 718 -882 0
882 -723 -727 0
882 -727 -25 0
882 723 -25 0
89 -90 -25 0
89 90 25 0
9 -10 -52 0
91 -92 -25 0
91 92 25 0
93 -94 -25 0
93 94 25 0
95 -96 -25 0
95 96 25 0
97 -98 -25 0
97 98 25 0
99 -100 -25 0
99 100 25 0
